
Starting CP-SAT solver v9.15.6755
Parameters: max_time_in_seconds: 900 log_search_progress: true num_workers: 8

Initial satisfaction model '': (model_fingerprint: 0x88dca16802c3cd4a)
#Variables: 5'166 (4'882 primary variables)
  - 4'986 Booleans in [0,1]
  - 180 in [0,2]
#kBoolAnd: 4'318 (#enforced: 4'318) (#literals: 12'904)
#kBoolOr: 4'268 (#enforced: 4'268) (#literals: 8'536)
#kLinear2: 1'179 (#enforced: 974) (#complex_domain: 333)
#kLinear3: 180
#kLinearN: 105 (#terms: 4'500)

Starting presolve at 0.00s
  1.46e-03s  0.00e+00d  [DetectDominanceRelations] 
  1.38e-02s  0.00e+00d  [PresolveToFixPoint] #num_loops=2 #num_dual_strengthening=1 
  8.20e-05s  0.00e+00d  [ExtractEncodingFromLinear] #potential_subsets=180 
  2.94e-04s  0.00e+00d  [DetectDuplicateColumns] 
  2.03e-04s  0.00e+00d  [DetectDuplicateConstraints] 
[Symmetry] Graph for symmetry has 28'511 nodes and 61'343 arcs.
[Symmetry] Symmetry computation done. time: 0.00758647 dtime: 0.0198027
[SAT presolve] num removable Booleans: 358 / 5'526
[SAT presolve] num trivial clauses: 0
[SAT presolve] [0s] clauses:16'031 literals:39'327 vars:5'526 one_side_vars:0 simple_definition:3'985 singleton_clauses:0
[SAT presolve] [0.000641681s] clauses:16'031 literals:39'327 vars:5'526 one_side_vars:0 simple_definition:3'985 singleton_clauses:0
[SAT presolve] [0.000943872s] clauses:15'956 literals:39'152 vars:5'501 one_side_vars:0 simple_definition:3'985 singleton_clauses:0
  2.88e-04s  0.00e+00d  [DetectDuplicateConstraintsWithDifferentEnforcements] 
  5.28e-02s  6.04e-02d  [Probe] #probed=8'577 #fixed_bools=1'269 #new_bounds=41 #equiv=559 #new_binary_clauses=7'011 
  5.91e-03s  9.46e-03d  [MaxClique] Merged 8'782 constraints with 18'422 literals into 6'123 constraints with 15'739 literals
  1.85e-03s  0.00e+00d  [DetectDominanceRelations] 
  7.82e-03s  0.00e+00d  [PresolveToFixPoint] #num_loops=2 #num_dual_strengthening=1 
  1.08e-03s  0.00e+00d  [ProcessAtMostOneAndLinear] 
  2.33e-04s  0.00e+00d  [DetectDuplicateConstraints] #duplicates=54 
  2.06e-04s  0.00e+00d  [DetectDuplicateConstraintsWithDifferentEnforcements] 
  2.10e-04s  1.19e-05d  [DetectDominatedLinearConstraints] #relevant_constraints=244 #num_inclusions=2 
  1.33e-04s  0.00e+00d  [DetectDifferentVariables] 
  1.65e-03s  1.32e-04d  [ProcessSetPPC] #relevant_constraints=8'908 #num_inclusions=801 
  1.63e-03s  3.43e-04d  [TransformClausesToExactlyOne] #num_amos=3'656 #num_clauses=5'325 #num_transformed=9 #num_checked=5'325 
  9.76e-04s  0.00e+00d  [DetectEncodedComplexDomains] 
  1.50e-04s  7.40e-07d  [FindAlmostIdenticalLinearConstraints] #num_tested_pairs=10 
  1.28e-03s  2.09e-03d  [FindBigAtMostOneAndLinearOverlap] 
  4.30e-04s  9.34e-04d  [FindBigVerticalLinearOverlap] 
  1.06e-04s  1.68e-05d  [FindBigHorizontalLinearOverlap] #linears=102 
  7.47e-04s  7.97e-05d  [MergeClauses] #num_collisions=15 #num_merges=15 #num_saved_literals=30 
  1.87e-03s  0.00e+00d  [DetectDominanceRelations] 
  6.25e-03s  0.00e+00d  [PresolveToFixPoint] #num_loops=1 #num_dual_strengthening=1 
  1.84e-03s  0.00e+00d  [DetectDominanceRelations] 
  6.16e-03s  0.00e+00d  [PresolveToFixPoint] #num_loops=1 #num_dual_strengthening=1 
  3.12e-04s  0.00e+00d  [DetectDuplicateColumns] 
  2.29e-04s  0.00e+00d  [DetectDuplicateConstraints] #duplicates=3 
[Symmetry] Graph for symmetry has 19'444 nodes and 37'008 arcs.
[Symmetry] Symmetry computation done. time: 0.00290653 dtime: 0.00667893
[SAT presolve] num removable Booleans: 274 / 3'673
[SAT presolve] num trivial clauses: 0
[SAT presolve] [0s] clauses:6'292 literals:17'900 vars:3'672 one_side_vars:2524 simple_definition:232 singleton_clauses:0
[SAT presolve] [0.00028701s] clauses:6'291 literals:17'891 vars:3'672 one_side_vars:2524 simple_definition:232 singleton_clauses:0
[SAT presolve] [0.000509518s] clauses:6'265 literals:17'828 vars:3'664 one_side_vars:2524 simple_definition:231 singleton_clauses:0
  4.59e-04s  0.00e+00d  [DetectDuplicateConstraintsWithDifferentEnforcements] 
  3.65e-02s  3.98e-02d  [Probe] #probed=8'552 #equiv=1 #new_binary_clauses=2'308 
  4.00e-03s  8.46e-03d  [MaxClique] Merged 3'633 constraints with 10'421 literals into 3'552 constraints with 10'312 literals
  1.91e-03s  0.00e+00d  [DetectDominanceRelations] 
  6.70e-03s  0.00e+00d  [PresolveToFixPoint] #num_loops=1 #num_dual_strengthening=1 
  1.14e-03s  0.00e+00d  [ProcessAtMostOneAndLinear] 
  2.73e-04s  0.00e+00d  [DetectDuplicateConstraints] #duplicates=1 
  2.36e-04s  0.00e+00d  [DetectDuplicateConstraintsWithDifferentEnforcements] 
  2.42e-04s  1.19e-05d  [DetectDominatedLinearConstraints] #relevant_constraints=244 #num_inclusions=2 
  1.67e-04s  0.00e+00d  [DetectDifferentVariables] 
  1.67e-03s  1.34e-04d  [ProcessSetPPC] #relevant_constraints=8'936 #num_inclusions=800 
  1.73e-03s  3.55e-04d  [TransformClausesToExactlyOne] #num_amos=3'553 #num_clauses=5'283 #num_checked=5'283 
  1.04e-03s  0.00e+00d  [DetectEncodedComplexDomains] 
  1.87e-04s  6.75e-07d  [FindAlmostIdenticalLinearConstraints] #num_tested_pairs=8 
  1.33e-03s  2.09e-03d  [FindBigAtMostOneAndLinearOverlap] 
  4.49e-04s  9.33e-04d  [FindBigVerticalLinearOverlap] 
  1.48e-04s  1.68e-05d  [FindBigHorizontalLinearOverlap] #linears=102 
  7.89e-04s  7.93e-05d  [MergeClauses] #num_collisions=13 #num_merges=13 #num_saved_literals=26 
  1.96e-03s  0.00e+00d  [DetectDominanceRelations] 
  6.40e-03s  0.00e+00d  [PresolveToFixPoint] #num_loops=1 #num_dual_strengthening=1 
  1.92e-03s  0.00e+00d  [DetectDominanceRelations] 
  6.35e-03s  0.00e+00d  [PresolveToFixPoint] #num_loops=1 #num_dual_strengthening=1 
  3.59e-04s  0.00e+00d  [DetectDuplicateColumns] 
  2.50e-04s  0.00e+00d  [DetectDuplicateConstraints] #duplicates=1 
[Symmetry] Graph for symmetry has 19'425 nodes and 36'759 arcs.
[Symmetry] Symmetry computation done. time: 0.00300598 dtime: 0.0067293
[SAT presolve] num removable Booleans: 259 / 3'664
[SAT presolve] num trivial clauses: 0
[SAT presolve] [0s] clauses:6'136 literals:17'557 vars:3'663 one_side_vars:2523 simple_definition:235 singleton_clauses:0
[SAT presolve] [0.000267513s] clauses:6'136 literals:17'557 vars:3'663 one_side_vars:2523 simple_definition:235 singleton_clauses:0
[SAT presolve] [0.000467241s] clauses:6'136 literals:17'557 vars:3'663 one_side_vars:2523 simple_definition:235 singleton_clauses:0
  4.96e-04s  0.00e+00d  [DetectDuplicateConstraintsWithDifferentEnforcements] 
  3.65e-02s  3.98e-02d  [Probe] #probed=8'552 #new_binary_clauses=2'301 
  3.97e-03s  8.45e-03d  [MaxClique] Merged 3'552 constraints with 10'302 literals into 3'542 constraints with 10'283 literals
  2.05e-03s  0.00e+00d  [DetectDominanceRelations] 
  7.04e-03s  0.00e+00d  [PresolveToFixPoint] #num_loops=1 #num_dual_strengthening=1 
  1.21e-03s  0.00e+00d  [ProcessAtMostOneAndLinear] 
  2.92e-04s  0.00e+00d  [DetectDuplicateConstraints] 
  2.68e-04s  0.00e+00d  [DetectDuplicateConstraintsWithDifferentEnforcements] 
  2.66e-04s  1.19e-05d  [DetectDominatedLinearConstraints] #relevant_constraints=244 #num_inclusions=2 
  2.17e-04s  0.00e+00d  [DetectDifferentVariables] 
  1.70e-03s  1.33e-04d  [ProcessSetPPC] #relevant_constraints=8'926 #num_inclusions=789 
  1.77e-03s  3.55e-04d  [TransformClausesToExactlyOne] #num_amos=3'542 #num_clauses=5'283 #num_checked=5'283 
  1.08e-03s  0.00e+00d  [DetectEncodedComplexDomains] 
  2.24e-04s  2.90e-07d  [FindAlmostIdenticalLinearConstraints] #num_tested_pairs=4 
  1.32e-03s  2.09e-03d  [FindBigAtMostOneAndLinearOverlap] 
  4.49e-04s  9.33e-04d  [FindBigVerticalLinearOverlap] 
  1.78e-04s  1.68e-05d  [FindBigHorizontalLinearOverlap] #linears=102 
  8.77e-04s  7.93e-05d  [MergeClauses] #num_collisions=13 #num_merges=13 #num_saved_literals=26 
  2.06e-03s  0.00e+00d  [DetectDominanceRelations] 
  6.78e-03s  0.00e+00d  [PresolveToFixPoint] #num_loops=1 #num_dual_strengthening=1 
  1.47e-04s  0.00e+00d  [MergeNoOverlap] 
  1.59e-04s  0.00e+00d  [MergeNoOverlap2D] 

Presolve summary:
  - 584 affine relations were detected.
  - rule 'TODO dual: only one blocking constraint?' was applied 204 times.
  - rule 'TODO linear2: contains a boolean' was applied 192 times.
  - rule 'affine: new relation' was applied 584 times.
  - rule 'at_most_one: empty or all false' was applied 39 times.
  - rule 'at_most_one: removed literals' was applied 1'286 times.
  - rule 'at_most_one: satisfied' was applied 1'184 times.
  - rule 'at_most_one: size one' was applied 1'190 times.
  - rule 'at_most_one: transformed into max clique' was applied 3 times.
  - rule 'bool_and: x => x' was applied 56 times.
  - rule 'bool_or: always true' was applied 1'707 times.
  - rule 'bool_or: implications' was applied 397 times.
  - rule 'bool_or: removed enforcement literal' was applied 3'001 times.
  - rule 'clauses: transformed into exactly one' was applied 9 times.
  - rule 'deductions: 1701 stored' was applied 1 time.
  - rule 'duplicate: removed constraint' was applied 59 times.
  - rule 'enforcement: false literal' was applied 120 times.
  - rule 'enforcement: true literal' was applied 102 times.
  - rule 'linear1: transformed to implication' was applied 4 times.
  - rule 'linear2: convert ax + by != cte to clauses' was applied 531 times.
  - rule 'linear2: convert implied ax + by == cte to clauses' was applied 333 times.
  - rule 'linear: always true' was applied 26 times.
  - rule 'linear: empty' was applied 130 times.
  - rule 'linear: enforcement literal in expression' was applied 20 times.
  - rule 'linear: extracted at most one (max)' was applied 66 times.
  - rule 'linear: fixed or dup variables' was applied 256 times.
  - rule 'linear: remapped using affine relations' was applied 112 times.
  - rule 'new_bool: integer encoding' was applied 540 times.
  - rule 'presolve: 1291 unused variables removed.' was applied 1 time.
  - rule 'presolve: iteration' was applied 3 times.
  - rule 'probing: bool_or reduced to implication' was applied 1'328 times.
  - rule 'setppc: bool_or in at_most_one' was applied 13 times.
  - rule 'setppc: removed dominated constraints' was applied 5 times.
  - rule 'variables: add encoding constraint' was applied 540 times.
  - rule 'variables: canonicalize domain' was applied 5 times.

Presolved satisfaction model '': (model_fingerprint: 0x8bdcaee53f97ce31)
#Variables: 3'803 (3'573 primary variables)
  - 3'664 Booleans in [0,1]
  - 139 in [0,2]
#kAtMostOne: 2'700 (#literals: 8'599)
#kBoolAnd: 787 (#enforced: 787) (#literals: 1'629)
#kBoolAndClauses: 11 (#enforced: 11 #multi: 11) (#literals: 46)
#kBoolOr: 5'259 (#literals: 15'779)
#kExactlyOne: 12 (#literals: 36)
#kLinear1: 834 (#enforced: 834)
#kLinear2: 247 (#enforced: 244)
#kLinear3: 139
#kLinearN: 102 (#terms: 3'362)
[Symmetry] Graph for symmetry has 17'508 nodes and 36'730 arcs.
[Symmetry] Symmetry computation done. time: 0.00272674 dtime: 0.00660836

Preloading model.
#Model   0.29s var:3803/3803 constraints:10091/10091

Starting search at 0.30s with 8 workers.
6 full problem subsolvers: [default_lp, max_lp, no_lp, probing, quick_restart, quick_restart_no_lp]
2 first solution subsolvers: [fj, fs_random_no_lp]
2 interleaved subsolvers: [feasibility_pump, rins/rens]
2 helper subsolvers: [neighborhood_helper, synchronization_agent]

#Model   0.53s var:3782/3803 constraints:10056/10091
#Model   0.60s var:3747/3803 constraints:9971/10091
#Model   0.89s var:3730/3803 constraints:9949/10091
#Model   1.40s var:3729/3803 constraints:9948/10091
#Model   1.48s var:3728/3803 constraints:9948/10091
#Model   1.62s var:3727/3803 constraints:9948/10091
#Model   1.85s var:3726/3803 constraints:9948/10091
#Model   2.73s var:3725/3803 constraints:9948/10091
#Model   3.17s var:3722/3803 constraints:9947/10091
#Model   3.59s var:3721/3803 constraints:9944/10091
#Model   3.65s var:3718/3803 constraints:9944/10091
#Model   5.14s var:3717/3803 constraints:9941/10091
#Model   5.79s var:3716/3803 constraints:9938/10091
#Model   5.93s var:3715/3803 constraints:9926/10091
#Model   6.56s var:3714/3803 constraints:9926/10091
#Model   6.88s var:3711/3803 constraints:9915/10091
#Model   8.35s var:3710/3803 constraints:9915/10091
#Model   9.66s var:3709/3803 constraints:9911/10091
#Model   9.78s var:3708/3803 constraints:9911/10091
#Model  10.35s var:3707/3803 constraints:9907/10091
#Model  10.45s var:3706/3803 constraints:9907/10091
#Model  11.62s var:3704/3803 constraints:9900/10091
#Model  11.93s var:3703/3803 constraints:9900/10091
#Model  12.08s var:3702/3803 constraints:9900/10091
#Model  14.58s var:3700/3803 constraints:9897/10091
#Model  15.45s var:3698/3803 constraints:9896/10091
#Model  16.26s var:3697/3803 constraints:9893/10091
#Model  16.59s var:3696/3803 constraints:9892/10091
#Model  16.71s var:3694/3803 constraints:9884/10091
#Model  20.15s var:3692/3803 constraints:9883/10091
#Model  22.33s var:3690/3803 constraints:9876/10091
#Model  23.80s var:3689/3803 constraints:9875/10091
#Model  24.29s var:3688/3803 constraints:9871/10091
#Model  27.23s var:3687/3803 constraints:9867/10091
#Model  29.97s var:3686/3803 constraints:9867/10091
#Model  30.76s var:3685/3803 constraints:9866/10091
#Model  31.19s var:3684/3803 constraints:9866/10091
#Model  31.58s var:3681/3803 constraints:9855/10091
#Model  36.05s var:3680/3803 constraints:9855/10091
#Model  37.19s var:3679/3803 constraints:9855/10091
#Model  38.41s var:3678/3803 constraints:9855/10091
#Model  39.23s var:3676/3803 constraints:9848/10091
#Model  39.39s var:3675/3803 constraints:9844/10091
#Model  40.22s var:3674/3803 constraints:9844/10091
#Model  42.62s var:3673/3803 constraints:9844/10091
#Model  43.85s var:3672/3803 constraints:9844/10091
#Model  44.47s var:3671/3803 constraints:9844/10091
#Model  45.23s var:3670/3803 constraints:9840/10091
#Model  46.91s var:3669/3803 constraints:9836/10091
#Model  48.75s var:3668/3803 constraints:9836/10091
#Model  49.56s var:3667/3803 constraints:9836/10091
#Model  53.97s var:3666/3803 constraints:9836/10091
#Model  54.05s var:3664/3803 constraints:9835/10091
#Model  56.01s var:3662/3803 constraints:9834/10091
#Model  56.48s var:3660/3803 constraints:9826/10091
#Model  56.70s var:3659/3803 constraints:9826/10091
#Model  57.32s var:3658/3803 constraints:9826/10091
#Model  57.39s var:3656/3803 constraints:9825/10091
#Model  57.51s var:3655/3803 constraints:9821/10091
#Model  59.03s var:3654/3803 constraints:9817/10091
#Model  60.66s var:3653/3803 constraints:9817/10091
#Model  63.04s var:3648/3803 constraints:9800/10091
#Model  63.30s var:3647/3803 constraints:9800/10091
#Model  64.26s var:3646/3803 constraints:9796/10091
#Model  71.40s var:3645/3803 constraints:9796/10091
#Model  74.71s var:3644/3803 constraints:9792/10091
#Model  75.32s var:3642/3803 constraints:9792/10091
#Model  82.47s var:3621/3803 constraints:9753/10091
#Model  83.66s var:3620/3803 constraints:9753/10091
#Model  86.73s var:3619/3803 constraints:9753/10091
#Model  93.71s var:3618/3803 constraints:9753/10091
#Model  94.30s var:3613/3803 constraints:9734/10091
#Model  97.14s var:3611/3803 constraints:9727/10091
#Model  99.15s var:3601/3803 constraints:9684/10091
#Model 105.96s var:3600/3803 constraints:9684/10091
#Model 108.45s var:3595/3803 constraints:9665/10091
#Model 111.64s var:3594/3803 constraints:9665/10091
#Model 119.68s var:3559/3803 constraints:9590/10091
#Model 122.47s var:3558/3803 constraints:9590/10091
#Model 129.38s var:3557/3803 constraints:9590/10091
#Model 159.32s var:3556/3803 constraints:9590/10091
#Model 163.58s var:3555/3803 constraints:9590/10091
#Model 164.95s var:3554/3803 constraints:9590/10091
#Model 172.20s var:3553/3803 constraints:9586/10091
#Model 180.62s var:3552/3803 constraints:9585/10091
#Model 186.64s var:3551/3803 constraints:9585/10091
#Model 192.35s var:3550/3803 constraints:9581/10091
#Model 192.54s var:3548/3803 constraints:9579/10091
#Model 195.38s var:3547/3803 constraints:9579/10091
#Model 196.66s var:3545/3803 constraints:9576/10091
#Model 201.95s var:3544/3803 constraints:9576/10091
#Model 203.10s var:3543/3803 constraints:9576/10091
#Model 204.42s var:3542/3803 constraints:9576/10091
#Model 204.50s var:3541/3803 constraints:9576/10091
#Model 210.84s var:3540/3803 constraints:9576/10091
#Model 218.10s var:3539/3803 constraints:9576/10091
#Model 254.68s var:3538/3803 constraints:9574/10091
#Model 255.18s var:3537/3803 constraints:9573/10091
#Model 257.63s var:3536/3803 constraints:9573/10091
#Model 269.57s var:3535/3803 constraints:9572/10091
#Model 272.91s var:3534/3803 constraints:9571/10091
#Model 275.22s var:3522/3803 constraints:9530/10091
#Model 280.88s var:3504/3803 constraints:9485/10091
#Model 284.43s var:3503/3803 constraints:9485/10091
#Model 291.64s var:3502/3803 constraints:9485/10091
#Model 297.59s var:3501/3803 constraints:9484/10091
#Model 330.51s var:3500/3803 constraints:9484/10091
#Model 331.63s var:3497/3803 constraints:9483/10091
#Model 346.04s var:3489/3803 constraints:9447/10091
#Model 351.51s var:3488/3803 constraints:9447/10091
#Model 355.26s var:3487/3803 constraints:9446/10091
#Model 358.86s var:3486/3803 constraints:9445/10091
#Model 359.37s var:3485/3803 constraints:9445/10091
#Model 361.59s var:3473/3803 constraints:9413/10091
#Model 366.58s var:3472/3803 constraints:9413/10091
#Model 421.27s var:3471/3803 constraints:9413/10091
#Model 422.67s var:3470/3803 constraints:9413/10091
#Model 431.44s var:3469/3803 constraints:9409/10091
#Model 435.33s var:3468/3803 constraints:9409/10091
#Model 435.75s var:3467/3803 constraints:9408/10091
#Model 439.25s var:3465/3803 constraints:9408/10091
#Model 439.93s var:3429/3803 constraints:9332/10091
#Model 455.97s var:3428/3803 constraints:9328/10091
#Model 475.36s var:3416/3803 constraints:9285/10091
#Model 551.01s var:3415/3803 constraints:9285/10091
#Model 552.27s var:3414/3803 constraints:9285/10091
#Model 573.29s var:3413/3803 constraints:9285/10091
#Model 584.32s var:3411/3803 constraints:9284/10091
#Model 592.05s var:3394/3803 constraints:9235/10091
#Model 600.12s var:3393/3803 constraints:9235/10091
#Model 600.34s var:3392/3803 constraints:9235/10091
#Model 615.51s var:3391/3803 constraints:9235/10091
#Model 616.20s var:3390/3803 constraints:9235/10091
#Model 617.09s var:3389/3803 constraints:9235/10091
#Model 641.09s var:3388/3803 constraints:9231/10091
#Model 659.40s var:3387/3803 constraints:9230/10091
#Model 675.13s var:3371/3803 constraints:9175/10091
#Model 677.83s var:3370/3803 constraints:9175/10091
#Model 681.30s var:3369/3803 constraints:9171/10091
#Model 682.70s var:3368/3803 constraints:9167/10091
#Model 708.26s var:3367/3803 constraints:9167/10091
#Model 713.82s var:3366/3803 constraints:9165/10091
#Model 738.63s var:3364/3803 constraints:9159/10091
#Model 760.56s var:3363/3803 constraints:9159/10091
#Model 760.86s var:3362/3803 constraints:9158/10091
#Model 798.50s var:3361/3803 constraints:9157/10091
#Model 837.69s var:3353/3803 constraints:9146/10091
#Model 841.55s var:3344/3803 constraints:9111/10091
#Model 844.26s var:3316/3803 constraints:9014/10091
#Model 861.01s var:3315/3803 constraints:9014/10091
#Model 867.38s var:3314/3803 constraints:9014/10091
#Model 868.47s var:3313/3803 constraints:9014/10091
#Model 882.37s var:3312/3803 constraints:9014/10091

Task timing                      n [     min,      max]      avg      dev     time         n [     min,      max]      avg      dev    dtime
           'default_lp':         1 [  15.00m,   15.00m]   15.00m   0.00ns   15.00m         2 [ 44.83ms,   13.14m]    6.57m    6.57m   13.14m
     'feasibility_pump':      5227 [886.64us, 106.97ms]   1.82ms   1.68ms    9.54s      5226 [280.41us, 147.41ms] 314.17us   2.04ms    1.64s
                   'fj':      5227 [ 50.84ms, 100.84ms]  70.20ms   8.65ms    6.12m      5227 [100.01ms, 100.19ms] 100.05ms  40.26us    8.72m
      'fs_random_no_lp':         1 [  15.00m,   15.00m]   15.00m   0.00ns   15.00m         2 [ 44.44ms,   37.05m]   18.52m   18.52m   37.05m
               'max_lp':         1 [  15.00m,   15.00m]   15.00m   0.00ns   15.00m         2 [688.26ms,   12.26m]    6.14m    6.12m   12.27m
                'no_lp':         1 [  15.00m,   15.00m]   15.00m   0.00ns   15.00m         2 [ 44.44ms,   33.54m]   16.77m   16.77m   33.54m
              'probing':         1 [  15.00m,   15.00m]   15.00m   0.00ns   15.00m         2 [ 43.66ms,    2.14m]    1.07m    1.07m    2.14m
        'quick_restart':         1 [  15.00m,   15.00m]   15.00m   0.00ns   15.00m         2 [ 44.81ms,   11.96m]    5.98m    5.98m   11.96m
  'quick_restart_no_lp':         1 [  15.00m,   15.00m]   15.00m   0.00ns   15.00m         2 [ 44.44ms,   37.02m]   18.51m   18.51m   37.03m
            'rins/rens':      4106 [630.14us, 181.07ms] 127.30ms  27.97ms    8.71m      4066 [  3.86us, 100.57ms]  75.03ms  32.05ms    5.08m

Search stats              Bools  Conflicts    Branches  Restarts  BacktrackToRoot   Backtrack     BoolPropag  IntegerPropag
           'default_lp':  3'664     30'467   2'890'225       171          907'055   1'491'192    363'768'043    323'348'118
      'fs_random_no_lp':  3'664  7'414'329  11'599'993    21'247          367'834   8'129'108  2'053'873'267    702'107'208
               'max_lp':  3'664     70'481   2'197'354       509          656'039   1'180'149    263'647'614    260'993'072
                'no_lp':  3'664  9'721'836  15'886'372    29'553          634'114  10'904'705  2'616'428'410    934'971'523
              'probing':  3'664          0       8'782         0            8'773       8'773        328'258        315'367
        'quick_restart':  3'664     29'340   2'804'713       212          865'961   1'431'438    351'997'572    311'994'454
  'quick_restart_no_lp':  3'664  3'182'819  16'528'755   291'126          834'879   4'610'571  1'523'706'582    811'319'558

SAT formula               Fixed  Equiv  Total  VarLeft  BinaryClauses  PermanentClauses  TemporaryClauses
           'default_lp':    486    144  3'664    3'034         29'496            86'017             4'049
      'fs_random_no_lp':    486    144  3'664    3'034         29'502           332'889            13'617
               'max_lp':    486    144  3'664    3'034         29'410            92'588            14'503
                'no_lp':    486    144  3'664    3'034         29'350           199'035            10'357
              'probing':    486      0  3'664    3'178         60'276           186'227                 0
        'quick_restart':    486    144  3'664    3'034         29'230            87'315             1'459
  'quick_restart_no_lp':    486    144  3'664    3'034         29'280           223'398            12'006

SAT stats                 ClassicMinim   LitRemoved  LitRemovedBinary   LitLearned  LitForgotten  Subsumed
           'default_lp':        19'224      391'766           324'807      636'663             0    17'668
      'fs_random_no_lp':     6'628'385  179'536'913        90'104'131  338'603'928   315'409'987   400'560
               'max_lp':        53'232      638'714           576'446    2'511'390     1'152'101    17'253
                'no_lp':     8'830'241  243'621'664       165'717'452  414'364'056   379'842'777   949'952
              'probing':             0            0                 0            0             0         0
        'quick_restart':        17'688      202'054           190'908      285'093             0    18'888
  'quick_restart_no_lp':     2'691'468   45'968'627        22'590'729  131'339'765   119'969'365    81'247

Vivification              Clauses  Decisions  LitTrue  Subsumed  LitRemoved  DecisionReused  Conflicts
           'default_lp':  665'208  2'072'265        8    44'682     268'654          89'841        935
      'fs_random_no_lp':  153'712  1'155'786        4    28'408     539'274          42'686      6'399
               'max_lp':  447'483  1'443'333        2    37'075     235'480          65'025        911
                'no_lp':  273'137  1'963'713       20    37'589     665'598          43'097      7'346
              'probing':       12         20        1         3          12               0          0
        'quick_restart':  627'866  2'010'470        6    43'044     264'225          88'952        969
  'quick_restart_no_lp':  215'380  1'405'957       13    38'313     568'033          39'513      6'344

Clause deletion           at_true  l_and_not(l)  to_binary  sub_conflict  sub_extra  sub_decisions  sub_eager  sub_vivify  sub_probing  sub_inpro  blocked  eliminated  forgotten    promoted  conflicts
           'default_lp':   16'606           697        578        17'535         32            140        133      44'682       21'227     17'315        0           0          0      16'633     30'467
      'fs_random_no_lp':  120'420         3'625        699       386'933     26'281          3'640     13'627      28'408       76'512    102'983        0           0  6'455'061  17'099'881  7'414'329
               'max_lp':   17'160           806        529        17'069        216            142        184      37'075       25'185     21'512        0           0     25'967     119'555     70'481
                'no_lp':  134'228         2'417        720       918'163     39'094         28'123     31'789      37'589       62'919    214'264        0           0  8'200'747  24'627'304  9'721'836
              'probing':        1             0          0             0          0              0          0           3            0          0        0           0          0           0          0
        'quick_restart':   15'670           849        495        18'783         17            171        105      43'044       22'875     17'848        0           0          0      10'168     29'340
  'quick_restart_no_lp':   50'471         2'557        736        78'233     11'789          1'289      3'014      38'313       56'682     68'098        0           0  2'760'423   6'013'582  3'182'819

Lp stats            Component  Iterations  AddedCuts  OPTIMAL  DUAL_F.  DUAL_U.
     'default_lp':          1   3'021'948     31'841   19'825    1'001    1'709
         'max_lp':          1   1'465'523     43'375      651   75'466       43
        'probing':          1     349'014     22'247    3'568       47        0
  'quick_restart':          1   2'177'184     24'464   14'074      832      941

Lp dimension            Final dimension of first component
     'default_lp':  3099 rows, 3162 columns, 28557 entries
         'max_lp':  8853 rows, 3803 columns, 45917 entries
        'probing':  3732 rows, 3162 columns, 26463 entries
  'quick_restart':  4003 rows, 3162 columns, 40197 entries

Lp debug            CutPropag  CutEqPropag  Adjust  Overflow        Bad  BadScaling
     'default_lp':          0            0   1'692         0  3'119'803           0
         'max_lp':          0            0      42         0  2'637'162           0
        'probing':          0            1       0         0  7'920'790           0
  'quick_restart':          0           27     905         0  3'645'561           0

Lp pool             Constraints  Updates  Simplif  Merged  Shortened  Split  Strengthened       Cuts/Call
     'default_lp':       13'176   13'051        0     157      5'891      0           161  31'841/111'477
         'max_lp':       19'116    6'985        0     147      3'206      0           290  43'375/115'042
        'probing':       12'674   12'729        0      65      2'492      0            51   22'247/78'252
  'quick_restart':       12'820   15'513        0     136      5'693      0            45   24'464/83'806

Lp Cut            default_lp  max_lp  probing  quick_restart
          CG_FF:          66     119       70             52
           CG_K:          25      19       62             36
          CG_KL:           4       8       10              1
           CG_R:          60      74       48             63
          CG_RB:          36      33      106             54
         CG_RBP:          20      13       52             39
         Clique:           -   1'543        -              -
             IB:      14'495   1'430    4'981         10'412
       MIR_1_FF:       1'893     721    1'951          1'403
        MIR_1_K:         641     433    1'079            415
       MIR_1_KL:         160       8      452             85
        MIR_1_R:         994     413      712            999
       MIR_1_RB:         202     178      258            147
      MIR_1_RBP:          37       7       67             27
      MIR_1_RLT:           -  16'562        -              -
       MIR_2_FF:       1'325     657    1'072            940
        MIR_2_K:         263     210      407            201
       MIR_2_KL:          24      28      112             12
        MIR_2_R:       1'056     645      770            920
       MIR_2_RB:         336     153      571            242
      MIR_2_RBP:          56      40      296             52
       MIR_3_FF:         555     537      547            399
        MIR_3_K:         132     119      196            101
       MIR_3_KL:          11      16       51              6
        MIR_3_R:         817     852      789            770
       MIR_3_RB:         255     151      361            193
      MIR_3_RBP:          97      62      208             72
       MIR_4_FF:         264     364      256            212
        MIR_4_K:          44      77       85             33
       MIR_4_KL:           1       9       19              1
        MIR_4_R:         616     810      635            647
       MIR_4_RB:         139     105      282            127
      MIR_4_RBP:          56      51      146             81
       MIR_5_FF:         130     169      128            110
        MIR_5_K:          15      54       39             11
       MIR_5_KL:           -       1       10              -
        MIR_5_R:         583     668      494            572
       MIR_5_RB:         104      89      191            126
      MIR_5_RBP:          69      39      127             84
       MIR_6_FF:          82     101       71             57
        MIR_6_K:          10      31       11              7
       MIR_6_KL:           -       -        5              -
        MIR_6_R:         538     615      466            489
       MIR_6_RB:          82      68      125             89
      MIR_6_RBP:          50      41       87             62
   ZERO_HALF_FF:         789   3'218      993            638
    ZERO_HALF_K:          41     286      113             37
   ZERO_HALF_KL:           1      18       73              5
    ZERO_HALF_R:       4'626  11'249    2'588          3'420
   ZERO_HALF_RB:          25     149       60              6
  ZERO_HALF_RBP:          16     132       15              9

LNS stats       Improv/Calls  Closed  Difficulty  TimeLimit
  'rins/rens':     4093/4093     50%    8.51e-01       0.10

LS stats                                    Batches  Restarts/Perturbs    LinMoves    GenMoves  CompoundMoves  Bactracks  WeightUpdates  ScoreComputed
                             'fj_restart':      245                 68  10'031'480           0              0          0        632'968     26'962'474
                    'fj_restart_compound':      477                 81           0  13'808'923        774'253  6'517'105          9'134    143'333'832
                'fj_restart_compound_obj':      259                 77           0   6'754'996        589'126  3'082'739          3'217     79'819'397
            'fj_restart_compound_perturb':      336                 77           0   9'568'472        609'463  4'479'336          6'088    101'356'217
        'fj_restart_compound_perturb_obj':      413                 75           0  11'726'218        730'254  5'497'773          7'510    124'362'771
                       'fj_restart_decay':      332                 86  17'178'095           0              0          0        116'950     20'856'708
              'fj_restart_decay_compound':      284                 84           0   8'074'492      1'240'062  3'416'981          1'562     89'248'846
          'fj_restart_decay_compound_obj':      207                 65           0   5'692'225        885'941  2'402'901          1'185     64'893'904
      'fj_restart_decay_compound_perturb':      327                 82           0   9'507'514      1'433'810  4'036'588          1'794    102'575'394
  'fj_restart_decay_compound_perturb_obj':      511                 76           0  16'358'049      2'354'071  7'001'797          2'538    160'687'282
                   'fj_restart_decay_obj':      327                 73  16'957'909           0              0          0        116'500     20'348'213
               'fj_restart_decay_perturb':      205                 74  10'609'159           0              0          0         73'141     12'687'945
           'fj_restart_decay_perturb_obj':      546                 64  28'363'727           0              0          0        194'498     34'175'906
                         'fj_restart_obj':      198                 83   8'254'589           0              0          0        487'125     21'722'758
                     'fj_restart_perturb':      298                 79  12'298'936           0              0          0        779'749     32'236'411
                 'fj_restart_perturb_obj':      262                 76  10'754'831           0              0          0        691'590     27'635'284

Solution repositories    Added  Queried  Synchro
    'alternative_path':      0        0        0
      'best_solutions':      0        0        0
   'fj solution hints':  1'212        0    1'212
        'lp solutions':    867    4'106      867
                'pump':      0        0

Improving bounds shared    Num  Sym
            'default_lp':    4    0
       'fs_random_no_lp':  147    0
                'max_lp':    2    0
                 'no_lp':  235    0
         'quick_restart':    2    0
   'quick_restart_no_lp':  117    0

Clauses shared            #Exported  #Imported  #BinaryRead  #BinaryTotal
           'default_lp':     20'659    179'695       37'699        37'774
      'fs_random_no_lp':    132'166    148'736       37'772        37'774
               'max_lp':     19'159    182'392       37'745        37'774
                'no_lp':    111'088    158'291       37'773        37'774
              'probing':          8    193'122       37'489        37'774
        'quick_restart':     20'437    179'557       37'744        37'774
  'quick_restart_no_lp':    162'766    124'517       37'774        37'774

LRAT_status: NA
CpSolverResponse summary:
status: UNKNOWN
objective: NA
best_bound: NA
integers: 3162
booleans: 3664
conflicts: 3182819
branches: 16528755
propagations: 1523706582
integer_propagations: 811319558
restarts: 291126
lp_iterations: 0
walltime: 900.113
usertime: 900.113
deterministic_time: 9657.49
gap_integral: 0

status: UNKNOWN wall: 900.1 s
UNKNOWN
